0 281 257
1 647 754
2 122 776
3 556 488
4 700 252
5 372 326
6 638 467
7 371 149
8 325 237
9 748 311
10 437 118
11 637 364
12 789 375
13 248 33
14 149 217
15 113 374
16 459 504
17 147 201
18 376 736
19 238 324
20 426 551
21 331 384
22 122 103
23 192 437
24 86 566
25 702 191
26 345 579
27 135 494
28 310 366
29 94 714
30 52 677
31 119 481
32 147 55
33 493 303
34 717 247
35 434 73
36 279 303
37 65 742
38 166 638
39 495 522
40 463 240
41 640 16
42 679 536
43 662 787
44 457 588
45 740 729
46 566 541
47 545 381
48 214 530
49 89 631
